webassembly/ejemplos_dzn/folder6_json_0.dzn
TERM = { '.', 's(2)', 'local_0', 'local_1', 's(1)', 's(0)', 's(3)', 'in_0'};
null = '.';
s = 6;
n = 6;
ndeps = 3;
max_registers_sz = 5;
NR = 2;
registers = [|'local_0', 's(0)', |'local_1', 's(1)'|];
dependencies = [|'i32.load16_s_0', 'call[function_index(0)]_4', |'call[function_index(0)]_4', 'i32.load16_u_5', |'i32.load8_s_2', 'call[function_index(0)]_4'|];
GET_ENUM = { GET1, GET2, GET3, GET4, GET5, GET6, GET7};
SET_ENUM = { SET1, SET2, SET3, SET4, SET5, SET6, SET7};
TEE_ENUM = { TEE1, TEE2, TEE3, TEE4, TEE5, TEE6, TEE7};
N = 4;
OP = { 'call[function_index(0)]_4', 'i32.load16_s_0', 'i32.load8_s_2', 'i32.load16_u_5' };
in_ops = [1, 1, 1, 1 ];
out_ops = [1, 1, 1, 1 ];
in1 = ['s(1)', 'in_0', 's(0)', 's(2)' ];
in2 = ['.', '.', '.', '.' ];
in3 = ['.', '.', '.', '.' ];
out1 = ['s(2)', 's(0)', 's(1)', 's(3)' ];
out2 = ['.', '.', '.', '.' ];
out3 = ['.', '.', '.', '.' ];
comm = [false, false, false, false ];
gas = [1, 1, 1, 1 ];
sz = [1, 1, 1, 1 ];
stor = [true, false, false, false ];
lb = [ 1, 1, 1, 1 ];
ub = [ 6, 6, 6, 6 ];
startstack = [ 'in_0', null, null, null, null, null ];
endstack = [ 's(3)', null, null, null, null, null ];
